13
-1 50 19 9 48 22 33 54 7 1 80 62 65 
47 -1 12 87 72 37 71 13 20 68 46 84 72 
61 44 -1 33 82 77 63 59 1 3 51 21 32 
35 47 55 -1 95 56 16 2 59 15 7 32 70 
17 23 19 74 -1 23 50 88 77 31 87 30 26 
26 74 45 9 30 -1 83 27 47 3 46 36 27 
5 90 59 47 9 6 -1 37 34 37 55 18 61 
50 56 71 92 87 58 49 -1 91 27 44 55 85 
0 47 20 94 96 82 71 98 -1 38 69 35 98 
34 44 85 88 81 68 0 66 74 -1 54 90 86 
45 82 98 6 71 33 51 69 93 2 -1 32 4 
70 3 54 43 54 18 48 22 34 48 98 -1 23 
19 30 79 20 66 1 86 65 40 6 66 84 -1 
